Geographic Exponential Decay
20 246 1 310 121 315 31 229 72 260 5 217 206 208 245 278 151 96 99 269 165
p edge 320 319
e 0 228 2.0
e 1 298 41.0
e 1 250 91.0
e 1 219 63.0
e 1 317 39.0
e 1 34 6.0
e 1 0 7.0
e 2 13 3.0
e 2 1 25.0
e 3 138 1.0
e 3 2 8.0
e 4 226 1.0
e 4 3 1.0
e 5 158 47.0
e 5 125 68.0
e 5 116 27.0
e 5 262 79.0
e 5 14 51.0
e 5 4 27.0
e 6 291 25.0
e 6 5 68.0
e 7 296 4.0
e 7 6 2.0
e 8 311 1.0
e 8 7 1.0
e 9 44 3.0
e 9 8 1.0
e 10 287 10.0
e 10 9 2.0
e 11 233 1.0
e 11 10 1.0
e 12 216 4.0
e 12 11 1.0
e 15 219 20.0
e 16 240 3.0
e 16 12 3.0
e 17 49 3.0
e 17 16 1.0
e 18 83 7.0
e 18 17 8.0
e 19 29 8.0
e 19 18 8.0
e 20 302 2.0
e 20 19 4.0
e 21 27 9.0
e 21 20 4.0
e 22 25 2.0
e 22 21 1.0
e 23 141 23.0
e 23 22 2.0
e 24 75 2.0
e 24 23 2.0
e 26 204 1.0
e 26 24 1.0
e 28 32 1.0
e 28 26 1.0
e 30 70 1.0
e 30 28 1.0
e 31 111 24.0
e 31 36 74.0
e 31 241 22.0
e 31 99 90.0
e 31 56 66.0
e 31 30 55.0
e 33 144 3.0
e 33 31 62.0
e 35 264 2.0
e 35 33 4.0
e 37 87 2.0
e 37 35 2.0
e 38 54 6.0
e 38 37 10.0
e 39 40 1.0
e 39 38 9.0
e 41 263 1.0
e 41 39 2.0
e 42 71 2.0
e 42 41 5.0
e 43 205 1.0
e 43 42 1.0
e 45 278 18.0
e 45 43 1.0
e 46 145 5.0
e 46 45 5.0
e 47 179 1.0
e 47 46 1.0
e 48 205 6.0
e 50 301 5.0
e 50 47 5.0
e 51 147 33.0
e 51 50 1.0
e 52 242 4.0
e 52 51 1.0
e 53 65 6.0
e 53 52 3.0
e 54 134 12.0
e 55 189 1.0
e 55 53 1.0
e 57 297 2.0
e 57 55 2.0
e 58 123 26.0
e 58 112 4.0
e 58 108 13.0
e 58 57 14.0
e 59 60 1.0
e 59 58 21.0
e 61 243 1.0
e 61 59 1.0
e 62 190 1.0
e 62 61 5.0
e 63 113 4.0
e 63 62 2.0
e 64 78 2.0
e 64 63 2.0
e 66 175 3.0
e 66 64 3.0
e 67 303 1.0
e 67 66 3.0
e 68 164 3.0
e 68 67 1.0
e 69 176 1.0
e 69 68 1.0
e 72 106 91.0
e 72 136 21.0
e 72 73 6.0
e 72 163 77.0
e 72 110 78.0
e 72 69 89.0
e 74 220 1.0
e 74 72 35.0
e 76 244 1.0
e 76 74 1.0
e 77 162 8.0
e 77 76 4.0
e 79 304 1.0
e 79 77 10.0
e 80 81 24.0
e 80 206 61.0
e 82 121 71.0
e 82 79 1.0
e 84 85 5.0
e 84 82 2.0
e 86 131 1.0
e 86 84 1.0
e 88 251 3.0
e 88 86 1.0
e 89 306 5.0
e 89 88 1.0
e 90 177 3.0
e 90 89 2.0
e 91 252 2.0
e 91 90 2.0
e 92 191 11.0
e 92 91 3.0
e 93 184 1.0
e 93 92 4.0
e 94 95 1.0
e 94 93 4.0
e 96 117 99.0
e 96 97 29.0
e 96 156 68.0
e 96 203 57.0
e 96 170 83.0
e 96 94 58.0
e 98 99 95.0
e 99 100 7.0
e 99 318 44.0
e 99 171 10.0
e 101 289 1.0
e 101 96 86.0
e 102 267 1.0
e 102 101 1.0
e 103 308 7.0
e 103 102 8.0
e 104 319 4.0
e 104 103 5.0
e 105 201 1.0
e 105 104 4.0
e 107 291 14.0
e 107 109 2.0
e 114 253 1.0
e 114 105 2.0
e 115 118 6.0
e 115 114 4.0
e 119 257 1.0
e 119 115 4.0
e 120 192 1.0
e 120 119 1.0
e 121 146 33.0
e 121 198 29.0
e 121 193 61.0
e 121 122 47.0
e 124 199 11.0
e 124 221 23.0
e 124 120 17.0
e 126 207 5.0
e 126 124 10.0
e 127 128 1.0
e 127 126 11.0
e 129 130 4.0
e 129 127 11.0
e 132 259 1.0
e 132 129 1.0
e 133 157 1.0
e 133 132 1.0
e 135 229 45.0
e 135 133 5.0
e 137 206 65.0
e 139 140 1.0
e 139 135 2.0
e 141 142 19.0
e 143 185 1.0
e 143 139 2.0
e 147 149 15.0
e 147 309 32.0
e 148 152 4.0
e 148 143 5.0
e 150 202 6.0
e 150 148 2.0
e 151 272 17.0
e 151 312 31.0
e 151 153 9.0
e 151 236 33.0
e 151 305 68.0
e 151 150 12.0
e 154 155 1.0
e 154 151 60.0
e 159 238 3.0
e 159 154 6.0
e 160 161 1.0
e 160 159 2.0
e 165 166 43.0
e 165 246 72.0
e 165 288 65.0
e 165 167 12.0
e 165 299 46.0
e 168 265 3.0
e 168 160 2.0
e 169 186 7.0
e 169 172 2.0
e 169 200 34.0
e 169 168 21.0
e 173 174 3.0
e 173 169 5.0
e 178 180 3.0
e 178 173 1.0
e 181 206 91.0
e 182 290 1.0
e 182 178 1.0
e 183 187 1.0
e 183 182 2.0
e 188 286 5.0
e 188 183 1.0
e 194 195 3.0
e 194 188 1.0
e 196 197 4.0
e 196 194 3.0
e 206 208 77.0
e 206 222 57.0
e 208 209 22.0
e 208 210 62.0
e 208 211 66.0
e 208 291 45.0
e 212 213 1.0
e 212 196 2.0
e 214 215 2.0
e 214 212 1.0
e 217 218 52.0
e 217 255 79.0
e 217 223 86.0
e 217 224 8.0
e 217 261 74.0
e 217 214 100.0
e 225 227 1.0
e 225 217 20.0
e 229 316 27.0
e 229 245 29.0
e 229 230 72.0
e 229 231 49.0
e 232 234 1.0
e 232 225 4.0
e 235 237 1.0
e 235 232 3.0
e 239 283 4.0
e 239 235 10.0
e 245 295 39.0
e 245 246 27.0
e 245 247 89.0
e 245 248 99.0
e 246 249 58.0
e 246 254 93.0
e 246 256 54.0
e 258 300 3.0
e 258 239 1.0
e 260 262 84.0
e 260 266 84.0
e 260 268 21.0
e 260 269 50.0
e 260 270 93.0
e 269 271 57.0
e 269 273 31.0
e 269 292 66.0
e 269 274 93.0
e 273 275 4.0
e 273 293 45.0
e 276 277 4.0
e 276 278 32.0
e 278 279 88.0
e 278 280 5.0
e 278 281 81.0
e 282 284 2.0
e 282 258 1.0
e 285 294 2.0
e 285 282 2.0
e 307 310 83.0
e 307 285 1.0
e 310 313 20.0
e 310 314 86.0
e 310 315 87.0
